Version identifier: 22.1.0.0 | 2022-03-09 | 1a383f8ce
CPXPARAM_Read_DataCheck                          1
Tried aggregator 3 times.
MIP Presolve eliminated 39274 rows and 4457 columns.
MIP Presolve modified 589 coefficients.
Aggregator did 35562 substitutions.
Reduced MIP has 5006 rows, 36841 columns, and 78731 nonzeros.
Reduced MIP has 36813 binaries, 28 generals, 0 SOSs, and 0 indicators.
Presolve time = 0.37 sec. (373.45 ticks)
Tried aggregator 1 time.
Detecting symmetries...
Reduced MIP has 5006 rows, 36841 columns, and 78731 nonzeros.
Reduced MIP has 36813 binaries, 28 generals, 0 SOSs, and 0 indicators.
Presolve time = 0.06 sec. (55.76 ticks)
Probing fixed 42 vars, tightened 0 bounds.
Probing changed sense of 4 constraints.
Probing time = 0.12 sec. (12.19 ticks)
Clique table members: 74939.
MIP emphasis: balance optimality and feasibility.
MIP search method: dynamic search.
Parallel mode: deterministic, using up to 8 threads.
Root relaxation solution time = 0.50 sec. (273.28 ticks)

        Nodes                                         Cuts/
   Node  Left     Objective  IInf  Best Integer    Best Bound    ItCnt     Gap

      0     0       28.4009  3817                     28.4009     4432         
      0     0       45.0000   470                    Cuts: 54     9227         
      0     0       45.0000   544                    Cuts: 34    11927         
      0     0       45.0000   395                 ZeroHalf: 3    12491         
      0     0       45.0000   433                    Cuts: 31    13604         
*     0+    0                           47.0000       45.0000             4.26%
      0     2       45.0000   433       47.0000       45.0000    13604    4.26%
Elapsed time = 53.20 sec. (20255.19 ticks, tree = 0.02 MB, solutions = 1)
      1     3       45.0000   127       47.0000       45.0000    17215    4.26%
*     3     2      integral     0       45.0000       45.0000    18366    0.00%
      3     2       45.0000     0       45.0000       45.0000    18366    0.00%
      4     4       45.0000   169       45.0000       45.0000    18667    0.00%
      5     5       45.0000    86       45.0000       45.0000    22927    0.00%
      6     5       45.0000   175       45.0000       45.0000    24488    0.00%

Zero-half cuts applied:  71
Gomory fractional cuts applied:  17

Root node processing (before b&c):
  Real time             =   53.10 sec. (20216.50 ticks)
Parallel b&c, 8 threads:
  Real time             =    5.02 sec. (4994.51 ticks)
  Sync time (average)   =    2.41 sec.
  Wait time (average)   =    0.00 sec.
                          ------------
Total (root+branch&cut) =   58.12 sec. (25211.01 ticks)
